1260
1737
2326
1671
393
1154
249
424
653
478
1841
625
1130
1579
1285
890
512
1838
127
1330
1267
1029
1166
1945
2229
2279
1957
1432
1422
732
1186
1025
717
2039
1756
141
2337
1266
2090
1717
2127
1516
1282
1349
500
297
1223
1064
1283
934
